p cnf 100 1
100 0
w 1 0.254629
w 2 1 1
w 2 -1 0
w 3 2 0.152819
w 3 -2 0.215284
w 4 3 1
w 4 -3 0
w 5 4 0.446143
w 5 -4 0.671162
w 6 5 1
w 6 -5 0
w 7 6 0
w 7 -6 1
w 8 7 0
w 8 -7 1
w 9 8 0.295764
w 9 -8 0.831881
w 10 9 1
w 10 -9 0
w 11 1 0
w 11 -1 1
w 12 11 2 0
w 12 11 -2 0
w 12 -11 2 1
w 12 -11 -2 0
w 13 12 3 0.0652917
w 13 12 -3 0.518936
w 13 -12 3 0.356149
w 13 -12 -3 0.026068
w 14 13 4 0
w 14 13 -4 0
w 14 -13 4 0
w 14 -13 -4 1
w 15 14 5 0
w 15 14 -5 1
w 15 -14 5 0
w 15 -14 -5 0
w 16 15 6 0
w 16 15 -6 1
w 16 -15 6 1
w 16 -15 -6 1
w 17 16 7 0
w 17 16 -7 0
w 17 -16 7 1
w 17 -16 -7 0
w 18 17 8 1
w 18 17 -8 0
w 18 -17 8 1
w 18 -17 -8 1
w 19 18 9 0
w 19 18 -9 1
w 19 -18 9 0
w 19 -18 -9 0
w 20 19 10 1
w 20 19 -10 0
w 20 -19 10 0
w 20 -19 -10 0
w 21 11 1
w 21 -11 0
w 22 21 12 0.56824
w 22 21 -12 0.741658
w 22 -21 12 0.724448
w 22 -21 -12 0.991732
w 23 22 13 0.0592295
w 23 22 -13 0.746223
w 23 -22 13 0.920025
w 23 -22 -13 0.689775
w 24 23 14 1
w 24 23 -14 1
w 24 -23 14 1
w 24 -23 -14 0
w 25 24 15 1
w 25 24 -15 1
w 25 -24 15 0
w 25 -24 -15 0
w 26 25 16 1
w 26 25 -16 0
w 26 -25 16 0
w 26 -25 -16 1
w 27 26 17 0
w 27 26 -17 1
w 27 -26 17 1
w 27 -26 -17 0
w 28 27 18 0.677023
w 28 27 -18 0.542593
w 28 -27 18 0.697795
w 28 -27 -18 0.401471
w 29 28 19 0
w 29 28 -19 0
w 29 -28 19 0
w 29 -28 -19 1
w 30 29 20 1
w 30 29 -20 0
w 30 -29 20 0
w 30 -29 -20 1
w 31 21 1
w 31 -21 0
w 32 31 22 0.226983
w 32 31 -22 0.70441
w 32 -31 22 0.171487
w 32 -31 -22 0.497923
w 33 32 23 0
w 33 32 -23 0
w 33 -32 23 1
w 33 -32 -23 0
w 34 33 24 0.866888
w 34 33 -24 0.00204671
w 34 -33 24 0.912831
w 34 -33 -24 0.823025
w 35 34 25 1
w 35 34 -25 0
w 35 -34 25 0
w 35 -34 -25 0
w 36 35 26 0
w 36 35 -26 0
w 36 -35 26 0
w 36 -35 -26 1
w 37 36 27 0.778871
w 37 36 -27 0.550326
w 37 -36 27 0.687963
w 37 -36 -27 0.175335
w 38 37 28 1
w 38 37 -28 0
w 38 -37 28 1
w 38 -37 -28 1
w 39 38 29 0
w 39 38 -29 0
w 39 -38 29 0
w 39 -38 -29 1
w 40 39 30 1
w 40 39 -30 0
w 40 -39 30 1
w 40 -39 -30 1
w 41 31 0.500051
w 41 -31 0.841464
w 42 41 32 0.636911
w 42 41 -32 0.382704
w 42 -41 32 0.0324526
w 42 -41 -32 0.309836
w 43 42 33 1
w 43 42 -33 1
w 43 -42 33 1
w 43 -42 -33 0
w 44 43 34 0
w 44 43 -34 1
w 44 -43 34 0
w 44 -43 -34 0
w 45 44 35 0
w 45 44 -35 1
w 45 -44 35 1
w 45 -44 -35 0
w 46 45 36 0
w 46 45 -36 1
w 46 -45 36 0
w 46 -45 -36 1
w 47 46 37 0.525815
w 47 46 -37 0.646482
w 47 -46 37 0.612689
w 47 -46 -37 0.287971
w 48 47 38 1
w 48 47 -38 1
w 48 -47 38 0
w 48 -47 -38 1
w 49 48 39 1
w 49 48 -39 1
w 49 -48 39 1
w 49 -48 -39 0
w 50 49 40 1
w 50 49 -40 1
w 50 -49 40 0
w 50 -49 -40 1
w 51 41 0
w 51 -41 1
w 52 51 42 0
w 52 51 -42 0
w 52 -51 42 1
w 52 -51 -42 0
w 53 52 43 0.401052
w 53 52 -43 0.353783
w 53 -52 43 0.549479
w 53 -52 -43 0.926868
w 54 53 44 1
w 54 53 -44 1
w 54 -53 44 1
w 54 -53 -44 0
w 55 54 45 1
w 55 54 -45 0
w 55 -54 45 0
w 55 -54 -45 1
w 56 55 46 0.611754
w 56 55 -46 0.5048
w 56 -55 46 0.794241
w 56 -55 -46 0.646284
w 57 56 47 0
w 57 56 -47 1
w 57 -56 47 1
w 57 -56 -47 1
w 58 57 48 0
w 58 57 -48 1
w 58 -57 48 1
w 58 -57 -48 1
w 59 58 49 1
w 59 58 -49 0
w 59 -58 49 0
w 59 -58 -49 1
w 60 59 50 1
w 60 59 -50 0
w 60 -59 50 1
w 60 -59 -50 1
w 61 51 0.232959
w 61 -51 0.892966
w 62 61 52 1
w 62 61 -52 1
w 62 -61 52 0
w 62 -61 -52 0
w 63 62 53 0.835621
w 63 62 -53 0.262576
w 63 -62 53 0.0737267
w 63 -62 -53 0.937338
w 64 63 54 0.369806
w 64 63 -54 0.06821
w 64 -63 54 0.376385
w 64 -63 -54 0.877101
w 65 64 55 0
w 65 64 -55 1
w 65 -64 55 1
w 65 -64 -55 1
w 66 65 56 1
w 66 65 -56 0
w 66 -65 56 0
w 66 -65 -56 1
w 67 66 57 0.768587
w 67 66 -57 0.0982638
w 67 -66 57 0.842788
w 67 -66 -57 0.00154513
w 68 67 58 0.962235
w 68 67 -58 0.00608281
w 68 -67 58 0.443018
w 68 -67 -58 0.00361507
w 69 68 59 0
w 69 68 -59 0
w 69 -68 59 1
w 69 -68 -59 1
w 70 69 60 0.784679
w 70 69 -60 0.843139
w 70 -69 60 0.844785
w 70 -69 -60 0.161064
w 71 61 1
w 71 -61 0
w 72 71 62 0.75228
w 72 71 -62 0.701623
w 72 -71 62 0.42592
w 72 -71 -62 0.340311
w 73 72 63 0
w 73 72 -63 1
w 73 -72 63 1
w 73 -72 -63 1
w 74 73 64 1
w 74 73 -64 1
w 74 -73 64 0
w 74 -73 -64 1
w 75 74 65 1
w 75 74 -65 0
w 75 -74 65 1
w 75 -74 -65 1
w 76 75 66 0
w 76 75 -66 0
w 76 -75 66 1
w 76 -75 -66 0
w 77 76 67 1
w 77 76 -67 0
w 77 -76 67 1
w 77 -76 -67 1
w 78 77 68 0.422544
w 78 77 -68 0.854678
w 78 -77 68 0.647711
w 78 -77 -68 0.848463
w 79 78 69 0
w 79 78 -69 0
w 79 -78 69 1
w 79 -78 -69 1
w 80 79 70 0
w 80 79 -70 0
w 80 -79 70 1
w 80 -79 -70 0
w 81 71 0
w 81 -71 1
w 82 81 72 1
w 82 81 -72 1
w 82 -81 72 1
w 82 -81 -72 0
w 83 82 73 1
w 83 82 -73 1
w 83 -82 73 0
w 83 -82 -73 1
w 84 83 74 0.438453
w 84 83 -74 0.779163
w 84 -83 74 0.0429057
w 84 -83 -74 0.384541
w 85 84 75 0
w 85 84 -75 1
w 85 -84 75 0
w 85 -84 -75 0
w 86 85 76 1
w 86 85 -76 1
w 86 -85 76 0
w 86 -85 -76 1
w 87 86 77 0
w 87 86 -77 0
w 87 -86 77 0
w 87 -86 -77 1
w 88 87 78 0
w 88 87 -78 1
w 88 -87 78 0
w 88 -87 -78 1
w 89 88 79 0.937614
w 89 88 -79 0.230556
w 89 -88 79 0.447399
w 89 -88 -79 0.513995
w 90 89 80 1
w 90 89 -80 1
w 90 -89 80 0
w 90 -89 -80 0
w 91 81 0
w 91 -81 1
w 92 91 82 0
w 92 91 -82 1
w 92 -91 82 0
w 92 -91 -82 0
w 93 92 83 0.119734
w 93 92 -83 0.664603
w 93 -92 83 0.565209
w 93 -92 -83 0.604477
w 94 93 84 1
w 94 93 -84 1
w 94 -93 84 0
w 94 -93 -84 0
w 95 94 85 1
w 95 94 -85 0
w 95 -94 85 0
w 95 -94 -85 0
w 96 95 86 1
w 96 95 -86 1
w 96 -95 86 1
w 96 -95 -86 0
w 97 96 87 0.551149
w 97 96 -87 0.9828
w 97 -96 87 0.234077
w 97 -96 -87 0.888138
w 98 97 88 1
w 98 97 -88 0
w 98 -97 88 0
w 98 -97 -88 1
w 99 98 89 0
w 99 98 -89 1
w 99 -98 89 0
w 99 -98 -89 1
w 100 99 90 1
w 100 99 -90 0
w 100 -99 90 0
w 100 -99 -90 0